
Gurobi 12.0.3 (win64, gurobi_cl) logging started Fri Nov 21 13:32:09 2025

Set parameter Username
Set parameter LicenseID to value 2710405
Set parameter LogFile to value "gurobi.log"
Using license file C:\Users\Angel\gurobi.lic
Academic license - for non-commercial use only - expires 2026-09-18

Gurobi 12.0.3 (win64, gurobi_cl) logging started Fri Nov 21 13:32:22 2025

Set parameter Username
Set parameter LicenseID to value 2710405
Set parameter LogFile to value "gurobi.log"
Using license file C:\Users\Angel\gurobi.lic
Academic license - for non-commercial use only - expires 2026-09-18

Gurobi 12.0.3 (win64, gurobi_cl) logging started Fri Nov 21 13:38:52 2025

Set parameter Username
Set parameter LicenseID to value 2710405
Set parameter LogFile to value "gurobi.log"
Using license file C:\Users\Angel\gurobi.lic
Academic license - for non-commercial use only - expires 2026-09-18
